22895
76,13,95,82,50,44,2,64,40,54,8,42,89,31,80,56,97,75,19,4,65,26,66,70,22,94,16,88,53,79,18,24,38,99,36,84,72,21,74,59,17,15,11,32,45,23,98,91,47,10,90,49,6,63,92,1,93,28,67,58,61,25,81,69,73,68,85,51,87,9,7,57,20,77,60,62,35,86,27,12,55,83,34,29,46,43,3,14,71,41,100,48,30,39,96,78,52,5,37,33,76
